%nprocshared=10
%mem=15GB
%chk=molecule.chk
# b3lyp/6-31G(d) pop=MK iop(6/33=2,6/41=10,6/42=17,6/50=1) SCF=tight
#

 opt.log

0  1
C           3.43766         4.96431        -0.76921
H           3.39066         6.05345        -0.85740
O           4.50615         4.70311         0.11833
C           4.76228         3.31577         0.40693
H           3.88124         2.88432         0.89916
C           5.97656         3.26228         1.33849
H           6.86805         3.53636         0.75709
H           6.10592         2.21676         1.64690
C           3.78411         4.31863        -2.11523
H           4.74094         4.74873        -2.44407
O           2.78202         4.59117        -3.09226
H           2.93499         3.95771        -3.81551
C           3.95394         2.81445        -1.95486
H           2.99857         2.38929        -1.61264
O           4.28957         2.31865        -3.24006
H           4.77909         1.47312        -3.14330
C           5.01133         2.51692        -0.89468
H           5.99703         2.77905        -1.30356
O           4.94708         1.10850        -0.63445
C           6.14317         0.35599        -0.60152
H           7.01093         1.02311        -0.56823
C           5.14671        -1.38496         0.73621
H           4.18405        -0.86041         0.71346
C           5.36041        -2.05025         2.09248
C           6.23077        -0.57552        -1.81341
H           7.21072        -1.07255        -1.77533
O           6.13176         0.17942        -3.02167
H           6.02325        -0.48834        -3.72363
C           5.14936        -1.64721        -1.77485
H           4.16736        -1.15632        -1.86645
O           5.40559        -2.47936        -2.89045
H           4.84039        -3.28104        -2.83283
C           5.16535        -2.38812        -0.43645
H           6.06835        -3.01183        -0.37743
O           3.99302        -3.21309        -0.39618
C           4.11989        -4.60466        -0.19563
H           5.16975        -4.86972        -0.03053
O           3.43675        -5.02778         0.96470
C           2.00995        -4.79643         0.98315
H           1.82565        -3.71645         0.90445
C           1.46490        -5.32090         2.31037
H           1.69426        -6.39384         2.38184
H           0.37410        -5.23693         2.24948
C           3.55272        -5.36838        -1.39546
H           3.71831        -6.43902        -1.20808
O           4.22436        -4.99448        -2.59694
H           3.65907        -5.33593        -3.31424
C           2.05585        -5.12837        -1.53156
H           1.88652        -4.05776        -1.72551
O           1.64355        -5.91459        -2.63418
H           0.66204        -5.91627        -2.68068
C           1.34198        -5.48570        -0.22861
H           1.37510        -6.57595        -0.09337
O          -0.01764        -5.04963        -0.35677
C          -1.06476        -5.98200        -0.19053
H          -0.65583        -6.96879         0.05196
O          -1.89729        -5.64344         0.89584
C          -2.59745        -4.38187         0.79619
H          -1.86208        -3.57249         0.70735
C          -3.41528        -4.23639         2.07695
H          -4.06162        -5.12093         2.15766
H          -4.07665        -3.37088         1.95695
C          -1.91851        -6.05373        -1.46101
H          -2.66786        -6.84326        -1.30362
O          -1.11696        -6.38805        -2.59156
H          -1.67328        -6.16488        -3.36102
C          -2.64966        -4.74015        -1.70216
H          -1.90522        -3.94561        -1.86437
O          -3.43058        -4.94735        -2.86587
H          -3.88841        -4.10892        -3.09417
C          -3.47662        -4.36598        -0.47139
H          -4.29754        -5.08756        -0.35550
O          -4.00556        -3.04977        -0.66900
C          -5.39351        -2.89332        -0.86926
H          -5.88090        -3.87244        -0.92538
O          -6.01146        -2.22938         0.21250
C          -5.54995        -0.88693         0.47831
H          -4.47930        -0.91792         0.72269
C          -6.34901        -0.37571         1.67453
H          -7.41659        -0.41204         1.41383
H          -6.09069         0.67924         1.82746
C          -5.65601        -2.09018        -2.14764
H          -6.74635        -2.04364        -2.28152
O          -5.07085        -2.73271        -3.27805
H          -5.04778        -2.05604        -3.97814
C          -5.12684        -0.66937        -2.01148
H          -4.03463        -0.71210        -1.87835
O          -5.46218        -0.01007        -3.21945
H          -5.37058         0.95928        -3.09227
C          -5.72367        -0.00145        -0.77409
H          -6.79234         0.18460        -0.95109
O          -5.03001         1.24031        -0.60738
C          -5.76388         2.43296        -0.42903
H          -6.83657         2.21619        -0.38539
O          -5.44909         3.04967         0.79876
C          -4.06258         3.42540         0.96433
H          -3.43673         2.53089         0.86009
C          -3.92605         4.01890         2.36481
H          -4.61867         4.86869         2.43723
H          -2.91023         4.42156         2.46266
C          -5.46086         3.40961        -1.57063
H          -6.10853         4.28732        -1.43348
O          -5.75468         2.79578        -2.82581
H          -5.37097         3.38977        -3.49577
C          -4.01069         3.86993        -1.52805
H          -3.36342         2.99844        -1.71452
C          -3.65658         4.41586        -0.14579
H          -4.17131         5.37522         0.00502
O          -2.23917         4.61174        -0.15292
C          -1.69721         5.83254         0.30297
H          -2.49248         6.49090         0.66766
O          -0.83711         5.62725         1.39894
C           0.28947         4.77129         1.12692
H          -0.07538         3.79932         0.76911
C           1.00339         4.53716         2.44544
H           1.73320         3.72982         2.29788
H           0.25702         4.20007         3.18044
C          -0.91289         6.50205        -0.82747
H          -0.57852         7.48329        -0.46047
O          -1.75145         6.68075        -1.96726
H          -1.13082         6.89994        -2.68745
C           0.31715         5.68334        -1.20482
H          -0.01479         4.71710        -1.61073
O           0.98300         6.43888        -2.20729
H           1.56498         5.82502        -2.70428
C           1.17686         5.39890         0.03359
H           1.61543         6.32742         0.41616
O           2.20921         4.45795        -0.28398
O           6.21021        -0.41977         0.57041
H          -3.03519         5.32994        -2.41564
O          -3.86953         4.83186        -2.55790
H           6.34223        -2.54345         2.07812
H           4.60685        -2.83967         2.19763
C           5.91559         4.17020         2.57741
C           4.70829         3.93609         3.49010
H           6.84063         4.01365         3.14781
H           5.92147         5.21632         2.25253
H           4.59415         2.87672         3.75252
H           3.78970         4.27336         3.00049
H           4.81544         4.49933         4.42525
C           5.29434        -1.09784         3.29760
C           3.93439        -0.41899         3.49764
H           5.54249        -1.67532         4.19770
H           6.07502        -0.33539         3.19366
H           3.68590         0.24872         2.66477
H           3.93048         0.18358         4.41349
H           3.12766        -1.15803         3.58461
C           1.96420        -4.59909         3.57749
C           3.30354        -5.10866         4.12381
H           2.02819        -3.51991         3.37735
H           1.20173        -4.71231         4.35941
H           3.23419        -6.17114         4.38912
H           4.10266        -5.00403         3.38580
H           3.59163        -4.56044         5.02873
C          -2.59066        -4.09244         3.36615
C          -1.77857        -2.79524         3.45929
H          -3.28277        -4.14022         4.21708
H          -1.92395        -4.95751         3.46486
H          -1.01931        -2.72773         2.67165
H          -2.42623        -1.91368         3.37070
H          -1.25706        -2.72837         4.42089
C          -6.11273        -1.16036         2.97109
C          -6.93397        -0.61770         4.14510
H          -6.35780        -2.21521         2.80267
H          -5.04365        -1.12423         3.22542
H          -6.68774         0.43102         4.35296
H          -8.00910        -0.66874         3.93337
H          -6.74819        -1.19175         5.05994
C          -4.20439         3.04006         3.51726
C          -3.18555         1.90076         3.63866
H          -4.20970         3.61343         4.45347
H          -5.21396         2.62733         3.40392
H          -3.19223         1.24860         2.75755
H          -2.16627         2.29116         3.75380
H          -3.40121         1.27405         4.51157
O           1.63401         5.74068         2.86129
H           2.10362         5.56083         3.68898

g16.gesp

g16.gesp

