%nprocshared=10
%mem=15GB
#p opt=(NoLinear,MaxStep=5) guess=indo b3lyp/6-31G(d)
#

 ../struct.pdb

0  1
C          33.85100        29.14200        34.70100
H          34.39300        28.18400        34.75000
O          33.01900        29.26900        35.87700
C          32.34500        30.54700        35.98300
H          33.04600        31.37400        36.09800
C          31.34000        30.48400        37.14400
H          30.68000        29.65200        36.86600
H          30.74400        31.37800        36.97000
C          32.99700        29.20000        33.41400
H          32.28800        28.36700        33.42200
O          33.82300        29.09900        32.24900
H          33.30000        29.43400        31.49400
C          32.22300        30.52200        33.34000
H          32.92200        31.35200        33.19900
O          31.31900        30.44700        32.20800
H          30.75000        31.25400        32.09400
C          31.46500        30.71500        34.66800
H          30.66800        29.96500        34.68900
O          30.88100        32.03500        34.57900
C          29.42700        32.12200        34.60800
H          28.98200        31.11300        34.58500
C          29.66200        34.06700        36.03000
H          30.74500        33.94400        36.10800
C          29.11000        34.83400        37.24400
C          28.92700        32.96900        33.38900
H          27.84300        33.05800        33.46200
O          29.25900        32.36400        32.14600
H          29.17000        33.06400        31.46400
C          29.55600        34.37200        33.41900
H          30.63600        34.29500        33.27300
O          28.97200        35.16200        32.34300
H          29.23000        36.12400        32.37400
C          29.26800        34.99400        34.79000
H          28.19000        35.18400        34.81900
O          29.97100        36.27000        34.79100
C          29.21100        37.48900        35.07800
H          28.14000        37.25400        35.16600
O          29.65900        38.08400        36.33900
C          31.09100        38.31100        36.35600
H          31.59800        37.35500        36.19600
C          31.69000        38.97400        37.61400
H          31.56800        40.04700        37.45000
H          32.74000        38.76900        37.37500
C          29.45400        38.52000        33.93400
H          28.89400        39.43100        34.16100
O          29.01200        38.01500        32.67600
H          29.45000        38.56400        31.99400
C          30.95300        38.87300        33.80200
H          31.51100        37.98200        33.49800
O          31.13300        39.92100        32.81300
H          32.06000        40.29400        32.77400
C          31.45500        39.32800        35.18300
H          30.98200        40.29200        35.39000
O          32.89500        39.52700        35.02800
C          33.48600        40.81600        35.41100
H          32.68900        41.50800        35.72800
O          34.40600        40.63700        36.53400
C          35.45700        39.67600        36.23400
H          34.96300        38.74900        35.93100
C          36.46000        39.28400        37.36400
H          37.41000        39.74800        37.09000
H          36.61800        38.23400        37.08900
C          34.28200        41.41500        34.19900
H          34.69700        42.37800        34.50400
O          33.46300        41.62100        33.04900
H          34.09000        41.69400        32.29400
C          35.43400        40.48800        33.76400
H          35.01800        39.54400        33.39900
O          36.23000        41.10100        32.70300
H          36.96000        40.51400        32.33400
C          36.28600        40.21000        35.00600
H          36.77900        41.13900        35.31200
O          37.26400        39.24200        34.56300
C          38.60300        39.77300        34.43500
H          38.57200        40.87300        34.39700
O          39.34700        39.37800        35.61000
C          39.45500        37.94600        35.83200
H          38.48400        37.48200        36.02200
C          40.45000        37.75400        36.99400
H          41.30000        38.39400        36.73700
H          40.84500        36.75500        36.83400
C          39.30000        39.23700        33.15800
H          40.28800        39.70500        33.08800
O          38.55800        39.56100        31.97900
H          38.94000        39.03400        31.24400
C          39.48300        37.71500        33.21400
H          38.50400        37.22900        33.16100
O          40.29000        37.32300        32.07400
H          40.54000        36.36400        32.07400
C          40.16600        37.34200        34.54600
H          41.19500        37.71200        34.50200
O          40.18100        35.89500        34.56100
C          41.45800        35.19600        34.71000
H          42.29300        35.90900        34.67000
O          41.48900        34.50000        36.00000
C          40.29800        33.69900        36.19000
H          39.42400        34.34700        36.10100
C          40.17000        32.89400        37.50400
H          40.46300        31.86800        37.26200
H          39.07900        32.88000        37.37800
C          41.57900        34.13100        33.57800
H          42.50800        33.57000        33.71600
O          41.59300        34.74000        32.28900
H          41.35000        34.03400        31.65400
C          40.38500        33.15600        33.61800
H          39.46900        33.70300        33.37600
C          40.25500        32.59000        35.03500
H          41.06800        31.87300        35.17900
O          38.98300        31.87800        34.97900
C          38.87800        30.54200        35.54800
H          39.84600        30.23700        35.97300
O          37.89600        30.60300        36.62500
C          36.57000        31.01000        36.18700
H          36.68000        31.91700        35.58700
C          35.67700        31.44900        37.39800
H          34.80600        31.97100        37.00400
H          36.24700        32.17000        37.98400
C          38.41900        29.50900        34.46900
H          38.45900        28.50600        34.90500
O          39.27700        29.54500        33.32000
H          38.80000        29.13400        32.56400
C          36.97700        29.78400        34.00200
H          36.96400        30.74000        33.47000
O          36.54100        28.75000        33.08600
H          35.70000        29.00400        32.61400
C          36.05300        29.89800        35.24000
H          36.00900        28.95300        35.79100
O          34.77300        30.24800        34.70900
O          29.01600        32.78100        35.83400
H          39.89000        31.34400        32.76400
O          40.55900        32.08100        32.65500
H          28.12200        35.20800        36.94800
H          29.77900        35.68500        37.10200
C          31.34000        30.48400        38.64400
C          31.34000        30.48400        40.14400
H          30.24400        30.43700        38.67000
H          31.74800        29.46800        38.64300
H          31.01500        31.45800        40.51900
H          32.34800        30.30200        40.52700
H          30.67700        29.71700        40.55800
C          29.11000        34.83400        38.74400
C          29.11000        34.83400        40.24500
H          29.10200        35.93100        38.79900
H          28.07000        34.49100        38.76100
H          28.66900        33.91200        40.63700
H          28.55700        35.67500        40.67900
H          30.13800        34.87900        40.61100
C          31.69000        38.97400        39.11400
C          31.69000        38.97400        40.60800
H          31.56400        37.88700        39.10200
H          32.75500        39.22800        39.17600
H          31.98600        39.95300        40.99600
H          30.68500        38.76300        40.98100
H          32.37100        38.22200        41.02000
C          36.46000        39.28400        38.86400
C          36.46000        39.28400        40.36400
H          37.16800        38.44800        38.89700
H          37.02300        40.22300        38.89600
H          36.15700        40.26000        40.75600
H          35.73700        38.55200        40.73100
H          37.43700        39.04400        40.79500
C          40.45000        37.75400        38.49400
C          40.45000        37.75400        40.00600
H          40.13400        38.80200        38.48900
H          39.55500        37.12400        38.49000
H          40.66500        36.75100        40.38300
H          41.22400        38.42600        40.38600
H          39.48900        38.07300        40.41500
C          40.17000        32.89400        39.00400
C          40.17000        32.89400        40.49500
H          39.32300        32.19700        39.06800
H          41.09500        32.30800        39.02800
H          41.12600        33.26100        40.88000
H          39.39200        33.56500        40.86800
H          40.00000        31.89900        40.92300
O          35.22300        30.41200        38.29200
H          34.66400        30.81500        39.01500

